NAME : PR135B
TYPE : PDTSP
DIMENSION : 135
EDGE_WEIGHT_TYPE : EUC_2D
NODE_COORD_SECTION
1 5300 1965
2 7275 1965
3 12450 1965
4 14425 1965
5 4118 2275
6 4743 2275
7 5935 2275
8 6560 2275
9 11268 2275
10 11893 2275
11 13085 2275
12 13710 2275
13 14425 2590
14 12450 2590
15 10250 2675
16 7275 2590
17 5300 2590
18 3100 2675
19 5300 2760
20 7275 2760
21 12450 2760
22 14425 2760
23 13085 3075
24 11893 3075
25 11268 3075
26 6560 3075
27 5935 3075
28 4743 3075
29 4118 3075
30 5300 3385
31 7275 3385
32 12450 3385
33 14425 3385
34 14425 4515
35 12450 4515
36 7275 4515
37 5300 4515
38 4118 4825
39 4743 4825
40 5935 4825
41 6560 4825
42 11268 4825
43 11893 4825
44 13085 4825
45 13710 4825
46 14425 5140
47 12450 5140
48 10250 5225
49 7275 5140
50 5300 5140
51 3100 5225
52 5300 5310
53 7275 5310
54 12450 5310
55 14425 5310
56 13710 5625
57 13085 5625
58 11893 5625
59 11268 5625
60 6560 5625
61 5935 5625
62 4743 5625
63 4118 5625
64 5300 5935
65 7275 5935
66 12450 5935
67 14425 5935
68 14425 7065
69 12450 7065
70 7275 7065
71 5300 7065
72 4118 7375
73 4743 7375
74 5935 7375
75 6560 7375
76 11268 7375
77 11893 7375
78 13085 7375
79 13710 7375
80 14425 7690
81 12450 7690
82 7275 7690
83 5300 7690
84 3100 7775
85 5300 7860
86 7275 7860
87 10250 7775
88 12450 7860
89 14425 7860
90 13710 8175
91 13085 8175
92 11893 8175
93 11268 8175
94 6560 8175
95 5935 8175
96 4743 8175
97 4118 8175
98 5300 8485
99 7275 8485
100 12450 8485
101 14425 8485
102 14425 9615
103 12450 9615
104 7275 9615
105 5300 9615
106 4118 9925
107 4743 9925
108 5935 9925
109 6560 9925
110 11268 9925
111 11893 9925
112 13085 9925
113 13710 9925
114 14425 10240
115 12450 10240
116 7275 10240
117 5300 10240
118 3100 10325
119 5300 10410
120 7275 10410
121 10250 10325
122 12450 10410
123 14425 10410
124 13710 10725
125 13085 10725
126 11893 10725
127 11268 10725
128 6560 10725
129 5935 10725
130 4743 10725
131 4118 10725
132 14425 11035
133 12450 11035
134 7275 11035
135 5300 11035
PICKUP_AND_DELIVERY_SECTION
1 0 0 0 0 0 0
2 0 0 0 0 18 0
3 0 0 0 0 0 4
4 0 0 0 0 3 0
5 0 0 0 0 0 90
6 0 0 0 0 29 0
7 0 0 0 0 0 28
8 0 0 0 0 0 53
9 0 0 0 0 0 10
10 0 0 0 0 9 0
11 0 0 0 0 0 114
12 0 0 0 0 0 33
13 0 0 0 0 24 0
14 0 0 0 0 58 0
15 0 0 0 0 32 0
16 0 0 0 0 0 49
17 0 0 0 0 0 129
18 0 0 0 0 0 2
19 0 0 0 0 0 30
20 0 0 0 0 0 26
21 0 0 0 0 23 0
22 0 0 0 0 56 0
23 0 0 0 0 0 21
24 0 0 0 0 0 13
25 0 0 0 0 43 0
26 0 0 0 0 20 0
27 0 0 0 0 0 37
28 0 0 0 0 7 0
29 0 0 0 0 0 6
30 0 0 0 0 19 0
31 0 0 0 0 0 64
32 0 0 0 0 0 15
33 0 0 0 0 12 0
34 0 0 0 0 0 46
35 0 0 0 0 0 45
36 0 0 0 0 96 0
37 0 0 0 0 27 0
38 0 0 0 0 0 50
39 0 0 0 0 0 40
40 0 0 0 0 39 0
41 0 0 0 0 0 65
42 0 0 0 0 0 47
43 0 0 0 0 0 25
44 0 0 0 0 0 54
45 0 0 0 0 35 0
46 0 0 0 0 34 0
47 0 0 0 0 42 0
48 0 0 0 0 0 120
49 0 0 0 0 16 0
50 0 0 0 0 38 0
51 0 0 0 0 72 0
52 0 0 0 0 0 63
53 0 0 0 0 8 0
54 0 0 0 0 44 0
55 0 0 0 0 77 0
56 0 0 0 0 0 22
57 0 0 0 0 0 68
58 0 0 0 0 0 14
59 0 0 0 0 66 0
60 0 0 0 0 62 0
61 0 0 0 0 0 85
62 0 0 0 0 0 60
63 0 0 0 0 52 0
64 0 0 0 0 31 0
65 0 0 0 0 41 0
66 0 0 0 0 0 59
67 0 0 0 0 89 0
68 0 0 0 0 57 0
69 0 0 0 0 100 0
70 0 0 0 0 134 0
71 0 0 0 0 74 0
72 0 0 0 0 0 51
73 0 0 0 0 97 0
74 0 0 0 0 0 71
75 0 0 0 0 0 119
76 0 0 0 0 0 93
77 0 0 0 0 0 55
78 0 0 0 0 0 122
79 0 0 0 0 0 80
80 0 0 0 0 79 0
81 0 0 0 0 0 113
82 0 0 0 0 98 0
83 0 0 0 0 0 95
84 0 0 0 0 132 0
85 0 0 0 0 61 0
86 0 0 0 0 104 0
87 0 0 0 0 109 0
88 0 0 0 0 92 0
89 0 0 0 0 0 67
90 0 0 0 0 5 0
91 0 0 0 0 0 125
92 0 0 0 0 0 88
93 0 0 0 0 76 0
94 0 0 0 0 99 0
95 0 0 0 0 83 0
96 0 0 0 0 0 36
97 0 0 0 0 0 73
98 0 0 0 0 0 82
99 0 0 0 0 0 94
100 0 0 0 0 0 69
101 0 0 0 0 0 123
102 0 0 0 0 124 0
103 0 0 0 0 0 131
104 0 0 0 0 0 86
105 0 0 0 0 0 135
106 0 0 0 0 0 128
107 0 0 0 0 108 0
108 0 0 0 0 0 107
109 0 0 0 0 0 87
110 0 0 0 0 0 127
111 0 0 0 0 126 0
112 0 0 0 0 133 0
113 0 0 0 0 81 0
114 0 0 0 0 11 0
115 0 0 0 0 121 0
116 0 0 0 0 0 117
117 0 0 0 0 116 0
118 0 0 0 0 0 130
119 0 0 0 0 75 0
120 0 0 0 0 48 0
121 0 0 0 0 0 115
122 0 0 0 0 78 0
123 0 0 0 0 101 0
124 0 0 0 0 0 102
125 0 0 0 0 91 0
126 0 0 0 0 0 111
127 0 0 0 0 110 0
128 0 0 0 0 106 0
129 0 0 0 0 17 0
130 0 0 0 0 118 0
131 0 0 0 0 103 0
132 0 0 0 0 0 84
133 0 0 0 0 0 112
134 0 0 0 0 0 70
135 0 0 0 0 105 0
DEPOT_SECTION
1 
-1
EOF
